c instance by G2
c solution = 00101101010101000111111
c Known solution cost is 1328 
p cnf 23 30
w 0 87 79 78 26 27 90 26 36 56 42 87 70 6 66 61 92 89 99 69 52 57 33
16 -8 23 0
15 7 -13 0
7 -6 -1 0
17 13 6 0
-19 7 18 0
19 12 -20 0
-4 11 1 0
-23 -4 18 0
-6 12 16 0
-14 8 -18 0
11 20 17 0
19 -22 1 0
19 -18 8 0
10 11 22 0
-8 -20 -7 0
2 -15 16 0
17 12 -19 0
17 -12 22 0
10 1 -5 0
-16 6 -9 0
-18 7 3 0
15 17 14 0
-2 -3 4 0
-10 -11 -20 0
13 7 21 0
-8 5 -18 0
-23 -18 -7 0
-17 4 -20 0
-9 -22 -12 0
-16 4 -6 0
